&files 
    seedfile='../SEED/seedpaolo.in'
    rulefile='../RULE/rule.in'
  /
&control
    calculation = 'relax',
 /
&lattice
    idimension=3
    latticetype = 'sc'
! 'fcc', 'sc'
    neighbourhood='vonneumann'
!'moore' 'vonneumann'
    isize = 100
 /    
&steps
  nstep = 12
  nprint = 6
 /
