&files 
    seedfile='../SEED/seedsmall.in'
    rulefile='../RULE/rulesmall2.in'
  /
&control
    calculation = 'relax',
 /
&lattice
    idimension=3
    latticetype = 'sc'
! 'fcc', 'sc'
    neighbourhood='vonneumann'
!'moore' 'vonneumann'
    isize = 5
 /    
&steps
  nstep = 1
  nprint = 1
 /
